40 18
10 96
6 389
17 80
11 908
10 705
7 144
9 786
17 681
2 498
5 635
11 819
13 68
11 254
7 625
8 794
1 767
16 959
17 220
3 687
11 653
13 745
11 840
13 444
4 84
2 552
9 234
15 693
16 638
5 970
13 369
3 590
8 976
16 369
3 832
11 492
5 941
7 747
3 941
2 584
17 32
